(declare-fun GHC.Base.id () Int)
(declare-fun GHC.Stack.Types.FreezeCallStack () Int)
(declare-fun Data.Vector.$36$WVector () Int)
(declare-fun fix$36$$36$cshowList$35$$35$a5Q2 () Int)
(declare-fun GHC.Base.map () Int)
(declare-fun autolen () Int)
(declare-fun lit$36$$39$RESPInteger () Str)
(declare-fun fix$36$$36$c$47$$61$$35$$35$a5Pa () Int)
(declare-fun lq_anf$36$$35$$35$7205759403792816360$35$$35$d5V6 () Int)
(declare-fun Data.Either.Right () Int)
(declare-fun GHC.Stack.Types.PushCallStack () Int)
(declare-fun GHC.Base.$43$$43$ () Int)
(declare-fun GHC.Types.KindRepTypeLitS () Int)
(declare-fun GHC.Types.True () Bool)
(declare-fun GHC.Base.. () Int)
(declare-fun head () Int)
(declare-fun RESP.Types.$36$fEqArray () Int)
(declare-fun tail () Int)
(declare-fun GHC.Classes.compare () Int)
(declare-fun GHC.Real.quot () Int)
(declare-fun lit$36$$39$MkArrayResponse () Str)
(declare-fun lit$36$SimpleString$32$ () Str)
(declare-fun GHC.Real.$36$W$58$$37$ () Int)
(declare-fun RESP.Types.MkArrayResponse () Int)
(declare-fun GHC.Float.sin () Int)
(declare-fun x_Tuple21 () Int)
(declare-fun GHC.Types.KindRepApp () Int)
(declare-fun GHC.Types.KindRepTYPE () Int)
(declare-fun Data.Text.Internal.$36$WText () Int)
(declare-fun lq_anf$36$$35$$35$7205759403792816399$35$$35$d5VJ () Int)
(declare-fun lq_tmp$36$x$35$$35$1209 () Int)
(declare-fun lq_anf$36$$35$$35$7205759403792816366$35$$35$d5Vc () Int)
(declare-fun fix$36$$36$cshowList$35$$35$a5On () Int)
(declare-fun lq_anf$36$$35$$35$7205759403792816383$35$$35$d5Vt () Int)
(declare-fun GHC.Real.fromRational () Int)
(declare-fun GHC.Real.recip () Int)
(declare-fun GHC.Num.abs () Int)
(declare-fun lit$36$src$47$RESP$47$Types.hs$58$14$58$64$45$65$124$case () Str)
(declare-fun GHC.Types.krep$36$$42$ () Int)
(declare-fun GHC.IO.Exception.IOError () Int)
(declare-fun lit$36$NullBulkString () Str)
(declare-fun lq_tmp$36$x$35$$35$949 () Int)
(declare-fun lq_anf$36$$35$$35$7205759403792816376$35$$35$d5Vm () Int)
(declare-fun GHC.Float.$42$$42$ () Int)
(declare-fun RESP.Types.Array () Int)
(declare-fun x_Tuple22 () Int)
(declare-fun RESP.Types.MkBulkStringResponse () Int)
(declare-fun RESP.Types.$36$fShowBulkString () Int)
(declare-fun lit$36$Array$32$ () Str)
(declare-fun Data.Text.Internal.$36$tcText () Int)
(declare-fun GHC.Real.$47$ () Int)
(declare-fun RESP.Types.$36$fEqBulkString () Int)
(declare-fun lq_tmp$36$x$35$$35$915 () Int)
(declare-fun GHC.Show.$36$fShowInt () Int)
(declare-fun GHC.Base.$36$ () Int)
(declare-fun RESP.Types.$36$fShowRESPDataType () Int)
(declare-fun GHC.Types.I$35$ () Int)
(declare-fun Data.Text.$36$fEqText () Int)
(declare-fun lq_anf$36$$35$$35$7205759403792816344$35$$35$d5UQ () Int)
(declare-fun GHC.Num.negate () Int)
(declare-fun lit$36$src$47$RESP$47$Types.hs$58$9$58$125$45$126$124$case () Str)
(declare-fun fix$36$$36$c$47$$61$$35$$35$a5NS () Int)
(declare-fun fix$36$$36$cshowsPrec$35$$35$a5O2 () Int)
(declare-fun fix$36$$36$cshowsPrec$35$$35$a5QH () Int)
(declare-fun GHC.Types.KindRepFun () Int)
(declare-fun Data.Text.Show.$36$fShowText () Int)
(declare-fun GHC.Types.KindRepVar () Int)
(declare-fun GHC.Num.Integer.IN () Int)
(declare-fun lit$36$$39$MkBulkStringResponse () Str)
(declare-fun GHC.Enum.C$58$Bounded () Int)
(declare-fun lqdc$35$$35$$36$select$35$$35$GHC.Maybe.Just$35$$35$1 () Int)
(declare-fun GHC.Float.atanh () Int)
(declare-fun lq_tmp$36$x$35$$35$1195 () Int)
(declare-fun GHC.Types.$36$tcInt () Int)
(declare-fun GHC.Prim.dataToTag$35$ () Int)
(declare-fun GHC.Show.showList__ () Int)
(declare-fun lq_tmp$36$x$35$$35$963 () Int)
(declare-fun GHC.Types.$36$WKindRepTYPE () Int)
(declare-fun GHC.Types.$36$WKindRepVar () Int)
(declare-fun GHC.Types.$58$ () Int)
(declare-fun fix$36$$36$c$61$$61$$35$$35$a5Ox () Int)
(declare-fun fix$36$$36$c$47$$61$$35$$35$a5Qx () Int)
(declare-fun fix$36$$36$cshow$35$$35$a5Og () Int)
(declare-fun Data.Either.Left () Int)
(declare-fun GHC.Float.atan () Int)
(declare-fun GHC.Float.log () Int)
(declare-fun GHC.Types.Module () Int)
(declare-fun GHC.Tuple.$40$$44$$44$$41$ () Int)
(declare-fun fix$36$$36$krep_a5Rp () Int)
(declare-fun totalityError () Int)
(declare-fun GHC.Num.fromInteger () Int)
(declare-fun GHC.Real.fromIntegral () Int)
(declare-fun GHC.Float.asin () Int)
(declare-fun lit$36$Pattern$32$match$40$es$41$$32$are$32$non$45$exhaustive () Str)
(declare-fun fix$36$$36$cshowList$35$$35$a5R2 () Int)
(declare-fun lit$36$$39$SimpleString () Str)
(declare-fun GHC.Classes.$61$$61$ () Int)
(declare-fun lq_tmp$36$x$35$$35$1039 () Int)
(declare-fun Control.Exception.Base.patError () Int)
(declare-fun GHC.Types.TrNameD () Int)
(declare-fun GHC.Types.EQ () Int)
(declare-fun GHC.Types.TyCon () Int)
(declare-fun fix$36$$36$c$61$$61$$35$$35$a5Qc () Int)
(declare-fun Data.Vector.$36$fShowVector () Int)
(declare-fun lit$36$hs$45$redis$45$clone$45$0.1.0.0$45$dlghi72xSz9Rj7lKm8c5D () Str)
(declare-fun GHC.Float.tanh () Int)
(declare-fun GHC.Maybe.Nothing () Int)
(declare-fun x_Tuple32 () Int)
(declare-fun RESP.Types.SimpleString () Int)
(declare-fun GHC.Types.LT () Int)
(declare-fun Data.Tuple.snd () Int)
(declare-fun GHC.Show.showsPrec () Int)
(declare-fun GHC.Types.False () Bool)
(declare-fun lit$36$$39$Array () Str)
(declare-fun lq_tmp$36$x$35$$35$1409 () Int)
(declare-fun x_Tuple33 () Int)
(declare-fun GHC.Types.GT () Int)
(declare-fun GHC.Real.mod () Int)
(declare-fun GHC.Show.showParen () Int)
(declare-fun GHC.Classes.not () Int)
(declare-fun fix$36$$36$krep_a5Rm () Int)
(declare-fun lit$36$NullArray () Str)
(declare-fun Data.Text.Internal.Text () Int)
(declare-fun lq_tmp$36$x$35$$35$1025 () Int)
(declare-fun GHC.Tuple.$40$$41$ () Int)
(declare-fun GHC.Float.cosh () Int)
(declare-fun fix$36$$36$krep_a5Rn () Int)
(declare-fun liquid_internal_this () Int)
(declare-fun snd () Int)
(declare-fun x_Tuple31 () Int)
(declare-fun lq_anf$36$$35$$35$7205759403792816394$35$$35$d5VE () Int)
(declare-fun GHC.Err.error () Int)
(declare-fun GHC.Classes.$36$fOrdInt () Int)
(declare-fun RESP.Types.NullBulkString () Int)
(declare-fun GHC.Float.tan () Int)
(declare-fun GHC.Float.acos () Int)
(declare-fun Data.Vector.$36$tcVector () Int)
(declare-fun len () Int)
(declare-fun GHC.Show.showString () Int)
(declare-fun GHC.Classes.$60$ () Int)
(declare-fun GHC.Num.Integer.IP () Int)
(declare-fun lq_anf$36$$35$$35$7205759403792816350$35$$35$d5UW () Int)
(declare-fun GHC.Classes.$62$$61$ () Int)
(declare-fun addrLen () Int)
(declare-fun cast_as_int () Int)
(declare-fun GHC.Maybe.Just () Int)
(declare-fun Data.Vector.Vector () Int)
(declare-fun GHC.Types.KindRepTypeLitD () Int)
(declare-fun lit$36$BulkString () Str)
(declare-fun lq_tmp$36$x$35$$35$1505 () Int)
(declare-fun GHC.Classes.$36$fEqInt () Int)
(declare-fun fix$36$$36$krep_a5Ri () Int)
(declare-fun GHC.Real.divMod () Int)
(declare-fun lq_anf$36$$35$$35$7205759403792816371$35$$35$d5Vh () Int)
(declare-fun lit$36$src$47$RESP$47$Types.hs$58$11$58$62$45$63$124$case () Str)
(declare-fun GHC.Classes.$62$ () Int)
(declare-fun lit$36$RESPDataType () Str)
(declare-fun cast_as () Int)
(declare-fun lq_anf$36$$35$$35$7205759403792816355$35$$35$d5V1 () Int)
(declare-fun GHC.Float.pi () Int)
(declare-fun RESP.Types.NullArray () Int)
(declare-fun GHC.Float.acosh () Int)
(declare-fun lq_anf$36$$35$$35$7205759403792816338$35$$35$d5UK () Int)
(declare-fun lit$36$MkArrayResponse$32$ () Str)
(declare-fun GHC.Classes.min () Int)
(declare-fun GHC.Num.Integer.IS () Int)
(declare-fun fix$36$$36$cshow$35$$35$a5PV () Int)
(declare-fun GHC.Classes.$38$$38$ () Int)
(declare-fun GHC.Float.sqrt () Int)
(declare-fun fix$36$$36$krep_a5Rk () Int)
(declare-fun GHC.Float.logBase () Int)
(declare-fun GHC.Float.sinh () Int)
(declare-fun fix$36$$36$c$61$$61$$35$$35$a5Nx () Int)
(declare-fun fix$36$$36$cshow$35$$35$a5QV () Int)
(declare-fun GHC.Real.quotRem () Int)
(declare-fun GHC.Classes.max () Int)
(declare-fun papp3 () Int)
(declare-fun lit$36$Array () Str)
(declare-fun lit$36$BulkString$32$ () Str)
(declare-fun GHC.Classes.C$58$Eq () Int)
(declare-fun GHC.Real.div () Int)
(declare-fun GHC.Real.$94$ () Int)
(declare-fun GHC.Types.TrNameS () Int)
(declare-fun fst () Int)
(declare-fun lit$36$MkBulkStringResponse$32$ () Str)
(declare-fun Data.Vector.$36$fEqVector () Int)
(declare-fun lit$36$$39$BulkString () Str)
(declare-fun papp2 () Int)
(declare-fun lit$36$$39$NullArray () Str)
(declare-fun fix$36$$36$krep_a5Re () Int)
(declare-fun GHC.Num.$45$ () Int)
(declare-fun lit$36$$39$NullBulkString () Str)
(declare-fun GHC.Prim.$47$$61$$35$ () Int)
(declare-fun GHC.Types.C$35$ () Int)
(declare-fun papp1 () Int)
(declare-fun RESP.Types.RESPInteger () Int)
(declare-fun Data.Tuple.fst () Int)
(declare-fun lq_anf$36$$35$$35$7205759403792816336$35$$35$d5UI () Int)
(declare-fun RESP.Types.$36$fShowArray () Int)
(declare-fun lq_tmp$36$x$35$$35$1429 () Int)
(declare-fun lq_tmp$36$x$35$$35$1385 () Int)
(declare-fun GHC.Float.asinh () Int)
(declare-fun GHC.Classes.$47$$61$ () Int)
(declare-fun GHC.Float.cos () Int)
(declare-fun lq_tmp$36$x$35$$35$1402 () Int)
(declare-fun GHC.Float.exp () Int)
(declare-fun GHC.Show.C$58$Show () Int)
(declare-fun papp7 () Int)
(declare-fun GHC.Types.KindRepTyConApp () Int)
(declare-fun GHC.Types.$91$$93$ () Int)
(declare-fun lit$36$RESPInteger$32$ () Str)
(declare-fun RESP.Types.BulkString () Int)
(declare-fun GHC.Real.toInteger () Int)
(declare-fun GHC.Real.$58$$37$ () Int)
(declare-fun GHC.Stack.Types.EmptyCallStack () Int)
(declare-fun GHC.Real.rem () Int)
(declare-fun papp6 () Int)
(declare-fun lit$36$RESP.Types () Str)
(declare-fun lq_tmp$36$x$35$$35$929 () Int)
(declare-fun GHC.Classes.C$58$IP () Int)
(declare-fun fix$36$$36$cshowsPrec$35$$35$a5Pk () Int)
(declare-fun GHC.CString.unpackCString$35$ () Int)
(declare-fun papp5 () Int)
(declare-fun lq_anf$36$$35$$35$7205759403792816389$35$$35$d5Vz () Int)
(declare-fun GHC.Num.$42$ () Int)
(declare-fun GHC.Classes.$60$$61$ () Int)
(declare-fun GHC.Classes.$124$$124$ () Int)
(declare-fun GHC.Tuple.$40$$44$$41$ () Int)
(declare-fun papp4 () Int)
(declare-fun GHC.Num.$43$ () Int)
(declare-fun lq_tmp$36$x$35$$35$1491 () Int)
(declare-fun RESP.Types.$36$fEqRESPDataType () Int)
(declare-fun apply$35$$35$15 (Int (_ BitVec 32)) Int)
(declare-fun apply$35$$35$4 (Int Int) (_ BitVec 64))
(declare-fun apply$35$$35$20 (Int (_ BitVec 64)) Int)
(declare-fun apply$35$$35$3 (Int Int) (_ BitVec 32))
(declare-fun apply$35$$35$18 (Int (_ BitVec 32)) (_ BitVec 32))
(declare-fun apply$35$$35$24 (Int (_ BitVec 64)) (_ BitVec 64))
(declare-fun apply$35$$35$19 (Int (_ BitVec 32)) (_ BitVec 64))
(declare-fun apply$35$$35$6 (Int Bool) Bool)
(declare-fun apply$35$$35$23 (Int (_ BitVec 64)) (_ BitVec 32))
(declare-fun apply$35$$35$0 (Int Int) Int)
(declare-fun apply$35$$35$12 (Int Str) Str)
(declare-fun apply$35$$35$7 (Int Bool) Str)
(declare-fun apply$35$$35$11 (Int Str) Bool)
(declare-fun apply$35$$35$17 (Int (_ BitVec 32)) Str)
(declare-fun apply$35$$35$13 (Int Str) (_ BitVec 32))
(declare-fun apply$35$$35$22 (Int (_ BitVec 64)) Str)
(declare-fun apply$35$$35$14 (Int Str) (_ BitVec 64))
(declare-fun apply$35$$35$16 (Int (_ BitVec 32)) Bool)
(declare-fun apply$35$$35$8 (Int Bool) (_ BitVec 32))
(declare-fun apply$35$$35$21 (Int (_ BitVec 64)) Bool)
(declare-fun apply$35$$35$9 (Int Bool) (_ BitVec 64))
(declare-fun apply$35$$35$5 (Int Bool) Int)
(declare-fun apply$35$$35$1 (Int Int) Bool)
(declare-fun apply$35$$35$2 (Int Int) Str)
(declare-fun apply$35$$35$10 (Int Str) Int)
(declare-fun coerce$35$$35$15 ((_ BitVec 32)) Int)
(declare-fun coerce$35$$35$4 (Int) (_ BitVec 64))
(declare-fun coerce$35$$35$20 ((_ BitVec 64)) Int)
(declare-fun coerce$35$$35$3 (Int) (_ BitVec 32))
(declare-fun coerce$35$$35$18 ((_ BitVec 32)) (_ BitVec 32))
(declare-fun coerce$35$$35$24 ((_ BitVec 64)) (_ BitVec 64))
(declare-fun coerce$35$$35$19 ((_ BitVec 32)) (_ BitVec 64))
(declare-fun coerce$35$$35$6 (Bool) Bool)
(declare-fun coerce$35$$35$23 ((_ BitVec 64)) (_ BitVec 32))
(declare-fun coerce$35$$35$0 (Int) Int)
(declare-fun coerce$35$$35$12 (Str) Str)
(declare-fun coerce$35$$35$7 (Bool) Str)
(declare-fun coerce$35$$35$11 (Str) Bool)
(declare-fun coerce$35$$35$17 ((_ BitVec 32)) Str)
(declare-fun coerce$35$$35$13 (Str) (_ BitVec 32))
(declare-fun coerce$35$$35$22 ((_ BitVec 64)) Str)
(declare-fun coerce$35$$35$14 (Str) (_ BitVec 64))
(declare-fun coerce$35$$35$16 ((_ BitVec 32)) Bool)
(declare-fun coerce$35$$35$8 (Bool) (_ BitVec 32))
(declare-fun coerce$35$$35$21 ((_ BitVec 64)) Bool)
(declare-fun coerce$35$$35$9 (Bool) (_ BitVec 64))
(declare-fun coerce$35$$35$5 (Bool) Int)
(declare-fun coerce$35$$35$1 (Int) Bool)
(declare-fun coerce$35$$35$2 (Int) Str)
(declare-fun coerce$35$$35$10 (Str) Int)
(declare-fun smt_lambda$35$$35$15 ((_ BitVec 32) Int) Int)
(declare-fun smt_lambda$35$$35$4 (Int (_ BitVec 64)) Int)
(declare-fun smt_lambda$35$$35$20 ((_ BitVec 64) Int) Int)
(declare-fun smt_lambda$35$$35$3 (Int (_ BitVec 32)) Int)
(declare-fun smt_lambda$35$$35$18 ((_ BitVec 32) (_ BitVec 32)) Int)
(declare-fun smt_lambda$35$$35$24 ((_ BitVec 64) (_ BitVec 64)) Int)
(declare-fun smt_lambda$35$$35$19 ((_ BitVec 32) (_ BitVec 64)) Int)
(declare-fun smt_lambda$35$$35$6 (Bool Bool) Int)
(declare-fun smt_lambda$35$$35$23 ((_ BitVec 64) (_ BitVec 32)) Int)
(declare-fun smt_lambda$35$$35$0 (Int Int) Int)
(declare-fun smt_lambda$35$$35$12 (Str Str) Int)
(declare-fun smt_lambda$35$$35$7 (Bool Str) Int)
(declare-fun smt_lambda$35$$35$11 (Str Bool) Int)
(declare-fun smt_lambda$35$$35$17 ((_ BitVec 32) Str) Int)
(declare-fun smt_lambda$35$$35$13 (Str (_ BitVec 32)) Int)
(declare-fun smt_lambda$35$$35$22 ((_ BitVec 64) Str) Int)
(declare-fun smt_lambda$35$$35$14 (Str (_ BitVec 64)) Int)
(declare-fun smt_lambda$35$$35$16 ((_ BitVec 32) Bool) Int)
(declare-fun smt_lambda$35$$35$8 (Bool (_ BitVec 32)) Int)
(declare-fun smt_lambda$35$$35$21 ((_ BitVec 64) Bool) Int)
(declare-fun smt_lambda$35$$35$9 (Bool (_ BitVec 64)) Int)
(declare-fun smt_lambda$35$$35$5 (Bool Int) Int)
(declare-fun smt_lambda$35$$35$1 (Int Bool) Int)
(declare-fun smt_lambda$35$$35$2 (Int Str) Int)
(declare-fun smt_lambda$35$$35$10 (Str Int) Int)
(declare-fun lam_arg$35$$35$1$35$$35$15 () (_ BitVec 32))
(declare-fun lam_arg$35$$35$2$35$$35$15 () (_ BitVec 32))
(declare-fun lam_arg$35$$35$3$35$$35$15 () (_ BitVec 32))
(declare-fun lam_arg$35$$35$4$35$$35$15 () (_ BitVec 32))
(declare-fun lam_arg$35$$35$5$35$$35$15 () (_ BitVec 32))
(declare-fun lam_arg$35$$35$6$35$$35$15 () (_ BitVec 32))
(declare-fun lam_arg$35$$35$7$35$$35$15 () (_ BitVec 32))
(declare-fun lam_arg$35$$35$1$35$$35$20 () (_ BitVec 64))
(declare-fun lam_arg$35$$35$2$35$$35$20 () (_ BitVec 64))
(declare-fun lam_arg$35$$35$3$35$$35$20 () (_ BitVec 64))
(declare-fun lam_arg$35$$35$4$35$$35$20 () (_ BitVec 64))
(declare-fun lam_arg$35$$35$5$35$$35$20 () (_ BitVec 64))
(declare-fun lam_arg$35$$35$6$35$$35$20 () (_ BitVec 64))
(declare-fun lam_arg$35$$35$7$35$$35$20 () (_ BitVec 64))
(declare-fun lam_arg$35$$35$1$35$$35$0 () Int)
(declare-fun lam_arg$35$$35$2$35$$35$0 () Int)
(declare-fun lam_arg$35$$35$3$35$$35$0 () Int)
(declare-fun lam_arg$35$$35$4$35$$35$0 () Int)
(declare-fun lam_arg$35$$35$5$35$$35$0 () Int)
(declare-fun lam_arg$35$$35$6$35$$35$0 () Int)
(declare-fun lam_arg$35$$35$7$35$$35$0 () Int)
(declare-fun lam_arg$35$$35$1$35$$35$5 () Bool)
(declare-fun lam_arg$35$$35$2$35$$35$5 () Bool)
(declare-fun lam_arg$35$$35$3$35$$35$5 () Bool)
(declare-fun lam_arg$35$$35$4$35$$35$5 () Bool)
(declare-fun lam_arg$35$$35$5$35$$35$5 () Bool)
(declare-fun lam_arg$35$$35$6$35$$35$5 () Bool)
(declare-fun lam_arg$35$$35$7$35$$35$5 () Bool)
(declare-fun lam_arg$35$$35$1$35$$35$10 () Str)
(declare-fun lam_arg$35$$35$2$35$$35$10 () Str)
(declare-fun lam_arg$35$$35$3$35$$35$10 () Str)
(declare-fun lam_arg$35$$35$4$35$$35$10 () Str)
(declare-fun lam_arg$35$$35$5$35$$35$10 () Str)
(declare-fun lam_arg$35$$35$6$35$$35$10 () Str)
(declare-fun lam_arg$35$$35$7$35$$35$10 () Str)



(assert (distinct lit$36$RESP.Types lit$36$RESPInteger$32$ lit$36$$39$NullBulkString lit$36$$39$NullArray lit$36$$39$BulkString lit$36$MkBulkStringResponse$32$ lit$36$BulkString$32$ lit$36$Array lit$36$MkArrayResponse$32$ lit$36$RESPDataType lit$36$src$47$RESP$47$Types.hs$58$11$58$62$45$63$124$case lit$36$BulkString lit$36$NullArray lit$36$$39$Array lit$36$hs$45$redis$45$clone$45$0.1.0.0$45$dlghi72xSz9Rj7lKm8c5D lit$36$$39$SimpleString lit$36$Pattern$32$match$40$es$41$$32$are$32$non$45$exhaustive lit$36$$39$MkBulkStringResponse lit$36$src$47$RESP$47$Types.hs$58$9$58$125$45$126$124$case lit$36$Array$32$ lit$36$NullBulkString lit$36$src$47$RESP$47$Types.hs$58$14$58$64$45$65$124$case lit$36$SimpleString$32$ lit$36$$39$MkArrayResponse lit$36$$39$RESPInteger))

(assert (distinct GHC.Types.False GHC.Types.True))




(assert (distinct GHC.Types.GT GHC.Types.LT GHC.Types.EQ))


(assert (= (strLen lit$36$$39$RESPInteger) 12))
(assert (= (strLen lit$36$$39$MkArrayResponse) 16))
(assert (= (strLen lit$36$SimpleString$32$) 13))
(assert (= (strLen lit$36$src$47$RESP$47$Types.hs$58$14$58$64$45$65$124$case) 31))
(assert (= (strLen lit$36$NullBulkString) 14))
(assert (= (strLen lit$36$Array$32$) 6))
(assert (= (strLen lit$36$src$47$RESP$47$Types.hs$58$9$58$125$45$126$124$case) 32))
(assert (= (strLen lit$36$$39$MkBulkStringResponse) 21))
(assert (= (strLen lit$36$Pattern$32$match$40$es$41$$32$are$32$non$45$exhaustive) 36))
(assert (= (strLen lit$36$$39$SimpleString) 13))
(assert (= (strLen lit$36$hs$45$redis$45$clone$45$0.1.0.0$45$dlghi72xSz9Rj7lKm8c5D) 44))
(assert (= (strLen lit$36$$39$Array) 6))
(assert (= (strLen lit$36$NullArray) 9))
(assert (= (strLen lit$36$BulkString) 10))
(assert (= (strLen lit$36$src$47$RESP$47$Types.hs$58$11$58$62$45$63$124$case) 31))
(assert (= (strLen lit$36$RESPDataType) 12))
(assert (= (strLen lit$36$MkArrayResponse$32$) 16))
(assert (= (strLen lit$36$Array) 5))
(assert (= (strLen lit$36$BulkString$32$) 11))
(assert (= (strLen lit$36$MkBulkStringResponse$32$) 21))
(assert (= (strLen lit$36$$39$BulkString) 11))
(assert (= (strLen lit$36$$39$NullArray) 10))
(assert (= (strLen lit$36$$39$NullBulkString) 15))
(assert (= (strLen lit$36$RESPInteger$32$) 12))
(assert (= (strLen lit$36$RESP.Types) 10))
(push 1)
(push 1)
(pop 1)
(pop 1)
